# Objective value = 3.0120905083447406e+02
x[0] 0
x[1] 1
x[2] 1
x[3] 1
x[4] 1
x[5] 0
x[6] 0
x[7] 0
x[8] 1
x[9] 0
x[10] 0
x[11] 0
x[12] 1
x[13] 0
x[14] 0
x[15] 0
x[16] 1
x[17] 1
x[18] 1
x[19] 0
x[20] 1
x[21] 1
x[22] 0
x[23] 1
x[24] 1
x[25] 0
x[26] 0
x[27] 0
x[28] 1
x[29] 1
x[30] 0
x[31] 0
x[32] 0
x[33] 1
x[34] 1
x[35] 0
x[36] 1
x[37] 0
x[38] 0
x[39] 0
x[40] 0
x[41] 0
x[42] 1.0000003712623817e+00
x[43] 0
x[44] 0
x[45] 0
x[46] 0
x[47] 0
x[48] 1
x[49] 1
x[50] 1
x[51] 1
x[52] 1
x[53] 1
x[54] 1
x[55] 1
x[56] 1
x[57] 0
x[58] 0
x[59] 0
x[60] 1
x[61] 1
x[62] 0
x[63] 0
x[64] 0
x[65] 1
x[66] 1
x[67] 1
x[68] 0
x[69] 0
x[70] 1
x[71] 1
x[72] 0
x[73] 1
x[74] 1
x[75] 0
x[76] 0
x[77] 1
x[78] 0
x[79] 1
x[80] 0
x[81] 1
x[82] 1
x[83] 0
x[84] 0
x[85] 1
x[86] 1
x[87] 0
x[88] 0
x[89] 1
x[90] 0
x[91] 1
x[92] 1
x[93] 0
x[94] 1
x[95] 1
x[96] 0
x[97] 1
x[98] 1
x[99] 0
x[100] 1
x[101] 1
x[102] 0
x[103] 1
x[104] 1
x[105] 0
x[106] 1
x[107] 0
x[108] 0
x[109] 1
x[110] 0
x[111] 1
x[112] 0
x[113] 0
x[114] 0
x[115] 0
x[116] 1
x[117] 1
x[118] 1
x[119] 0
x[120] 1
x[121] 0
x[122] 1
x[123] 1
x[124] 0
x[125] 0
x[126] 0
x[127] 0
x[128] 0
x[129] 0
x[130] 1
x[131] 1
x[132] 1
x[133] 1
x[134] 0
x[135] 1
x[136] 1
x[137] 1
x[138] 1
x[139] 1
x[140] 0
x[141] 0
x[142] 0
x[143] 1
x[144] 1
x[145] 0
x[146] 0
x[147] 1
x[148] 0
x[149] 0
x[150] 1
x[151] 0
x[152] 1
x[153] 1
x[154] 1
x[155] 0
x[156] -3.8128205104293045e-07
x[157] 0
x[158] 1
x[159] 1
x[160] 1
x[161] 1
x[162] 1
x[163] 1
x[164] 1
x[165] 0
x[166] 1
x[167] 1
x[168] 0
x[169] 0
x[170] 0
x[171] 1
x[172] 0
x[173] 1
x[174] 1
x[175] 0
x[176] 1
x[177] 1
x[178] 1
x[179] 0
x[180] 0
x[181] 1
x[182] 0
x[183] 1
x[184] 1
x[185] 0
x[186] 1
x[187] 1
x[188] 0
x[189] 1
x[190] 0
x[191] 1
x[192] 0
x[193] 1
x[194] 1
x[195] 1
x[196] 1
x[197] 0
x[198] 0
x[199] 1
x[200] 1
x[201] 1
x[202] 0
x[203] 0
x[204] 0
x[205] 1
x[206] 0
x[207] 0
x[208] 0
x[209] 1
x[210] 1
x[211] 0
x[212] 0
x[213] 1
x[214] 1
x[215] 1
x[216] 0
x[217] 0
x[218] 0
x[219] 0
x[220] 1
x[221] 0
x[222] 0
x[223] 0
x[224] 1
x[225] 0
x[226] 1
x[227] 1
x[228] 1
x[229] 1
x[230] 0
x[231] 1
x[232] 1
x[233] 1
x[234] 1
x[235] 0
x[236] 1
x[237] 0
x[238] 0
x[239] 0
x[240] 1
x[241] 1
x[242] 0
x[243] 1
x[244] 0
x[245] 1
x[246] 0
x[247] 0
x[248] 1
x[249] 0
x[250] 0
x[251] 1
x[252] 0
x[253] 0
x[254] 1
x[255] 1
x[256] 1
x[257] 0
x[258] 0
x[259] 0
x[260] 0
x[261] 1
x[262] 1
x[263] 0
x[264] 1
x[265] 0
x[266] 1
x[267] 1
x[268] 0
x[269] 0
x[270] 0
x[271] 1
x[272] 0
x[273] 0
x[274] 1
x[275] 0
x[276] 1
x[277] 1
x[278] 1
x[279] 0
x[280] 0
x[281] 0
x[282] 1
x[283] 1
x[284] 1
x[285] 1
x[286] 1
x[287] 0
x[288] 0
x[289] 1
x[290] 0
x[291] 1
x[292] 0
x[293] 1
x[294] 0
x[295] 0
x[296] 1
x[297] 0
x[298] 1
x[299] 0
x[300] 0
x[301] 0
x[302] 1
x[303] 0
x[304] 0
x[305] 1
x[306] 1
x[307] 1
x[308] 0
x[309] 0
x[310] 0
x[311] 1
x[312] 1
x[313] 1
x[314] 0
x[315] 1
x[316] 1
x[317] 0
x[318] 0
x[319] 0
x[320] 1
x[321] 0
x[322] 1
x[323] 1
x[324] 0
x[325] 1
x[326] 0
x[327] 0
x[328] 1
x[329] 0
x[330] 0
x[331] 1
x[332] 1
x[333] 0
x[334] 0
x[335] 0
x[336] 1
x[337] 0
x[338] 0
x[339] 1
x[340] 0
x[341] 0
x[342] 0
x[343] 1
x[344] 1
x[345] 1
x[346] 1
x[347] 1
x[348] 1
x[349] 0
x[350] 0
x[351] 0
x[352] 0
x[353] 0
x[354] 0
x[355] 1
x[356] 0
x[357] 0
x[358] 1
x[359] 1
x[360] 0
x[361] 1
x[362] 0
x[363] 0
x[364] 0
x[365] 1
x[366] 1
x[367] 1
x[368] 1
x[369] 0
x[370] 1
x[371] 1
x[372] 0
x[373] 1
x[374] 1
x[375] 0
x[376] 1
x[377] 1
x[378] 1
x[379] 0
x[380] 0
x[381] 0
x[382] 1
x[383] 1
x[384] 0
x[385] 0
x[386] 0
x[387] 0
x[388] 0
x[389] 0
x[390] 0
x[391] 0
x[392] 0
x[393] 0
x[394] 0
x[395] 1
x[396] 0
x[397] 1
x[398] 0
x[399] 1
x[400] 0
x[401] 1
x[402] 1
x[403] 1
x[404] 1
x[405] 0
x[406] 0
x[407] 1
x[408] 0
x[409] 1
x[410] 1
x[411] 0
x[412] 1
x[413] 0
x[414] 0
x[415] 0
x[416] 0
x[417] 1
x[418] 1
x[419] 0
x[420] 1
x[421] 1
x[422] 1
x[423] 0
x[424] 1
x[425] 1
x[426] 1
x[427] 0
x[428] 1
x[429] 0
x[430] 0
x[431] 0
x[432] 0
x[433] 1
x[434] 1
x[435] 0
x[436] 0
x[437] 0
x[438] 1
x[439] 0
x[440] 0
x[441] 1
x[442] 1
x[443] 1
x[444] 1
x[445] 0
x[446] 0
x[447] 0
x[448] 1
x[449] 0
x[450] 0
x[451] 1
x[452] 1
x[453] 1
x[454] 1
x[455] 1
x[456] 0
x[457] 1
x[458] 1
x[459] 0
x[460] 1
x[461] 0
x[462] 1
x[463] 1
x[464] 1
x[465] 0
x[466] 1
x[467] 1
x[468] 1
x[469] 1
x[470] 0
x[471] 0
x[472] 0
x[473] 0
x[474] 1
x[475] 0
x[476] 1
x[477] 0
x[478] 0
x[479] 1
x[480] 1
x[481] 0
x[482] 1
x[483] 1
x[484] 0
x[485] 1
x[486] 0
x[487] 1
x[488] 1
x[489] 1
x[490] 1
x[491] 0
x[492] 1
x[493] 1
x[494] 1
x[495] 0
x[496] 0
x[497] 0
x[498] 0
x[499] 1
x[500] 1
x[501] 0
x[502] 0
x[503] 0
x[504] 0
x[505] 0
x[506] 1
x[507] 1
x[508] 0
x[509] 0
x[510] 1
x[511] 1
x[512] 1
x[513] 1
x[514] 1
x[515] 1
x[516] 0
x[517] 0
x[518] 0
x[519] 1
x[520] 1
x[521] 0
x[522] 1
x[523] 0
x[524] 1
x[525] 1
x[526] 1
x[527] 1
x[528] 1
x[529] 1
x[530] 0
x[531] 0
x[532] 1
x[533] 0
x[534] 1
x[535] 0
x[536] 0
x[537] 1
x[538] 0
x[539] 1
x[540] 0
x[541] 0
x[542] 1
x[543] 0
x[544] 1
x[545] 1
x[546] 1
x[547] 0
x[548] 0
x[549] 0
x[550] 0
x[551] 1
x[552] 1
x[553] 1
x[554] 0
x[555] 1
x[556] 0
x[557] 0
x[558] 0
x[559] 1
x[560] 0
x[561] 0
x[562] 1
x[563] 0
x[564] 1
x[565] 0
x[566] 1
x[567] 0
x[568] 1
x[569] 0
x[570] 0
x[571] 0
x[572] 1
x[573] 0
x[574] 0
x[575] 0
x[576] 0
x[577] 1
x[578] 0
x[579] 1
x[580] 1
x[581] 0
x[582] 1
x[583] 0
x[584] 0
x[585] 0
x[586] 0
x[587] 1
x[588] 1
x[589] 0
x[590] 1
x[591] 1
x[592] 1
x[593] 1
x[594] 1
x[595] 1
x[596] 0
x[597] 1
x[598] 0
x[599] 0
x[600] 0
x[601] 0
x[602] 0
x[603] 1
x[604] 1
x[605] 1
x[606] 1
x[607] 1
x[608] 0
x[609] 1
x[610] 0
x[611] 0
x[612] 0
x[613] 1
x[614] 0
x[615] 1
x[616] 0
x[617] 0
x[618] 0
x[619] 1
x[620] 0
x[621] 0
x[622] 0
x[623] 1
x[624] 0
x[625] 0
x[626] 1
x[627] 0
x[628] 0
x[629] 0
x[630] 0
x[631] 0
x[632] 0
x[633] 0
x[634] 0
x[635] 0
x[636] 1
x[637] 0
x[638] 0
x[639] 1
x[640] 1
x[641] 0
x[642] 1
x[643] 0
x[644] 0
x[645] 0
x[646] 0
x[647] 1
x[648] 1
x[649] 1
x[650] 0
x[651] 0
x[652] 0
x[653] 0
x[654] 1
x[655] 0
x[656] 1
x[657] 1
x[658] 0
x[659] 0
x[660] 0
x[661] 1
x[662] 1
x[663] 0
x[664] 1
x[665] 0
x[666] 0
x[667] 1
x[668] 0
x[669] 0
x[670] 0
x[671] 0
x[672] 1
x[673] 1
x[674] 0
x[675] 1
x[676] 0
x[677] 0
x[678] 0
x[679] 0
x[680] 0
x[681] 1
x[682] 1
x[683] 0
x[684] 0
x[685] 0
x[686] 1
x[687] 1
x[688] 0
x[689] 1
x[690] 0
x[691] 1
x[692] 0
x[693] 1
x[694] 1
x[695] 1
x[696] 1
x[697] 0
x[698] 0
x[699] 0
x[700] 0
x[701] 1
x[702] 0
x[703] 1
x[704] 1
x[705] 1
x[706] 0
x[707] 1
x[708] 1
x[709] 1
x[710] 0
x[711] 1
x[712] 1
x[713] 0
x[714] 0
x[715] 0
x[716] 1
x[717] 0
x[718] 1
x[719] 0
x[720] 0
x[721] 0
x[722] 1
x[723] 1
x[724] 1
x[725] 0
x[726] 0
x[727] 0
x[728] 0
x[729] 0
x[730] 1
x[731] 1
x[732] 0
x[733] 0
x[734] 0
x[735] 0
x[736] 0
x[737] 0
x[738] 1
x[739] 1
x[740] 1
x[741] 0
x[742] 1
x[743] 0
x[744] 1
x[745] 1
x[746] 0
x[747] 1
x[748] 0
x[749] 1
x[750] 0
x[751] 0
x[752] 0
x[753] 1
x[754] 1
x[755] 0
x[756] 1
x[757] 1
x[758] 1
x[759] 0
x[760] 1
x[761] 0
x[762] 0
x[763] 0
x[764] 1
x[765] 0
x[766] 1
x[767] 1
x[768] 1
x[769] 1
x[770] 0
x[771] 0
x[772] 0
x[773] 0
x[774] 1
x[775] 1
x[776] 0
x[777] 1
x[778] 0
x[779] 1
x[780] 0
x[781] 1
x[782] 0
x[783] 1
x[784] 0
x[785] 0
x[786] 0
x[787] 0
x[788] 0
x[789] 0
x[790] 0
x[791] 0
x[792] 0
x[793] -3.7971640498568604e-07
x[794] 1
x[795] 0
x[796] 1
x[797] 1
x[798] 1
x[799] 0
x[800] 0
x[801] 1
x[802] 1
x[803] 0
x[804] 0
x[805] 0
x[806] 0
x[807] 0
x[808] 1
x[809] 0
x[810] 1
x[811] 1
x[812] 1
x[813] 1
x[814] 0
x[815] 1
x[816] 0
x[817] 1
x[818] 1
x[819] 0
x[820] 1
x[821] 1
x[822] 1
x[823] 1
x[824] 1
x[825] 0
x[826] 1
x[827] 1
x[828] 0
x[829] 0
x[830] 0
x[831] 1
x[832] 1
x[833] 0
x[834] 0
x[835] 1
x[836] 0
x[837] 1
x[838] 0
x[839] 1
x[840] 1
x[841] 0
x[842] 0
x[843] 0
x[844] 0
x[845] 0
x[846] 0
x[847] 1
x[848] 1
x[849] 1
x[850] 0
x[851] 1
x[852] 0
x[853] 1
x[854] 1
x[855] 0
x[856] 1
x[857] 0
x[858] 1
x[859] 0
x[860] 0
x[861] 1.0000003823591823e+00
x[862] 0
x[863] 1
x[864] 0
x[865] 0
x[866] 0
x[867] 1
x[868] 0
x[869] 1
x[870] 0
x[871] 1
x[872] 0
x[873] 1
x[874] 0
x[875] 1
x[876] 0
x[877] 1
x[878] 1
x[879] 1
x[880] 1
x[881] 1
x[882] 0
x[883] 0
x[884] 0
x[885] 1
x[886] 0
x[887] 1
x[888] 0
x[889] 0
x[890] 0
x[891] 0
x[892] 1
x[893] 0
x[894] 0
x[895] 1
x[896] 0
x[897] 1
x[898] 0
x[899] 1
x[900] 0
x[901] 0
x[902] 1
x[903] 0
x[904] 1
x[905] 0
x[906] 1
x[907] 1
x[908] 0
x[909] 0
x[910] 0
x[911] 1
x[912] 1
x[913] 0
x[914] 1
x[915] 1
x[916] 1
x[917] 0
x[918] 1
x[919] 0
x[920] 1
x[921] 0
x[922] 0
x[923] 1
x[924] 1
x[925] 1
x[926] 1
x[927] 0
x[928] 1
x[929] 0
x[930] 0
x[931] 0
x[932] 0
x[933] 0
x[934] 1
x[935] 1
x[936] 0
x[937] 0
x[938] 0
x[939] 1
x[940] 0
x[941] 0
x[942] 1
x[943] 0
x[944] 0
x[945] 1
x[946] 1
x[947] 0
x[948] 1
x[949] 1
x[950] 1
x[951] 1
x[952] 0
x[953] 1
x[954] 1
x[955] 0
x[956] 1
x[957] 0
x[958] 0
x[959] 1
x[960] 0
x[961] 0
x[962] 1
x[963] 0
x[964] 1
x[965] 0
x[966] 0
x[967] 1
x[968] 0
x[969] 1
x[970] 0
x[971] 0
x[972] 0
x[973] 1
x[974] 0
x[975] 1
x[976] 0
x[977] 0
x[978] 1
x[979] 0
x[980] 0
x[981] 1
x[982] 1
x[983] 0
x[984] 0
x[985] 0
x[986] 1
x[987] 0
x[988] 0
x[989] 1
x[990] 1
x[991] 0
x[992] 1
x[993] 0
x[994] 1
x[995] 0
x[996] 0
x[997] 0
x[998] 0
x[999] 0
